2
4
20
1 1.3 1.55 1.75 2.1
47 43 21 6 10 32 49 41 35 48 13 19 42 33 48 38 38 31 15 12 37 31 12 25 12 13 19 7 19 17 43 28 46 18 46 13 24 39 17 24 18 47 33 11 21 29 29 30 45 30 29 23 29 29 30 20 24 30 21 38 42 24 20 40 36 6 15 48 37 29 24 45 16 18 23 28 26 33 36 33 